Reading model...
...model read.
creating competitive generators file...
...competitive generators recorded.
Loading data...
.. real-time data read.
Compiling instance...
...instance created.
Creating Offer Mitigation (model will solve as dispatch if TRUE)...
...storage offer mitigation file created
Converting model to MPEC...
...converted
NOTE: initial MIP solve with only storage competitive to get feasible solution
Solving...

Welcome to IBM(R) ILOG(R) CPLEX(R) Interactive Optimizer 12.9.0.0
  with Simplex, Mixed Integer & Barrier Optimizers
5725-A06 5725-A29 5724-Y48 5724-Y49 5724-Y54 5724-Y55 5655-Y21
Copyright IBM Corp. 1988, 2019.  All Rights Reserved.

Type 'help' for a list of available commands.
Type 'help' followed by a command name for more
information on commands.

CPLEX> Logfile 'cplex.log' closed.
Logfile 'C:\Users\llavin\Desktop\test826\logs\tmptkwceic2.cplex.log' open.
CPLEX> New value for parallel optimization mode: -1
CPLEX> New value for mixed integer optimality gap tolerance: 0.02
CPLEX> New value for integrality tolerance: 1e-12
CPLEX> New value for deterministic time limit in ticks: 45000
CPLEX> Problem 'C:\Users\llavin\Desktop\test826\logs\tmpzhgmklob.pyomo.lp' read.
Read time = 0.48 sec. (28.93 ticks)
CPLEX> Problem name         : C:\Users\llavin\Desktop\test826\logs\tmpzhgmklob.pyomo.lp
Objective sense      : Maximize
Variables            :  107803  [Nneg: 1,  Box: 44062,  Free: 8928,
                                 Binary: 54812]
Objective nonzeros   :   18340
Linear constraints   :  246963  [Less: 82886,  Greater: 118460,  Equal: 45617]
  Nonzeros           :  621605
  RHS nonzeros       :  135881

Variables            : Min LB: -5000.000        Max UB: 1000000.       
Objective nonzeros   : Min   : 0.001000000      Max   : 208.3333       
Linear constraints   :
  Nonzeros           : Min   : 0.001000000      Max   : 1000000.       
  RHS nonzeros       : Min   : 0.001000000      Max   : 1000000.       
CPLEX> CPXPARAM_Parallel                                -1
CPXPARAM_DetTimeLimit                            45000
CPXPARAM_MIP_Tolerances_MIPGap                   0.02
CPXPARAM_MIP_Tolerances_Integrality              9.9999999999999998e-13
Tried aggregator 3 times.
MIP Presolve eliminated 176489 rows and 37209 columns.
MIP Presolve added 7020 rows and 0 columns.
MIP Presolve modified 51744 coefficients.
Aggregator did 25907 substitutions.
Reduced MIP has 51587 rows, 43791 columns, and 164393 nonzeros.
Reduced MIP has 17302 binaries, 0 generals, 0 SOSs, and 0 indicators.
Presolve time = 0.63 sec. (396.09 ticks)
Probing fixed 885 vars, tightened 16982 bounds.
Probing time = 0.44 sec. (19.96 ticks)
Tried aggregator 2 times.
MIP Presolve eliminated 2054 rows and 1774 columns.
MIP Presolve modified 6425 coefficients.
Aggregator did 96 substitutions.
Reduced MIP has 49437 rows, 41921 columns, and 144807 nonzeros.
Reduced MIP has 16417 binaries, 0 generals, 0 SOSs, and 0 indicators.
Presolve time = 0.28 sec. (257.75 ticks)
Probing fixed 0 vars, tightened 528 bounds.
Probing time = 0.56 sec. (17.93 ticks)
Clique table members: 83987.
MIP emphasis: balance optimality and feasibility.
MIP search method: dynamic search.
Parallel mode: opportunistic, using up to 32 threads.
Root relaxation solution time = 1.34 sec. (2734.30 ticks)

        Nodes                                         Cuts/
   Node  Left     Objective  IInf  Best Integer    Best Bound    ItCnt     Gap

      0     0    -4784.6790  1139                  -4784.6790    12059         
      0     0    -4790.4349   934                   Cuts: 670    12364         
      0     0    -4792.1798   911                   Cuts: 188    12490         
      0     0    -4796.0420   916                    Cuts: 98    12560         
      0     0    -4895.9982   969                   Cuts: 169    12783         
      0     0    -4913.8456   899                   Cuts: 113    12882         
      0     0    -4921.3258   907                   Cuts: 115    12916         
      0     0    -5048.5392   947                    Cuts: 68    13081         
      0     0    -5100.4426   980                   Cuts: 122    13219         
      0     0    -5121.6164   937                   Cuts: 144    13339         
      0     0    -5151.9420   907                   Cuts: 102    13463         
      0     0    -5155.3937   895                    Cuts: 52    13512         
      0     0    -5155.5346   893                 Flowcuts: 6    13513         
      0     5    -9037.6377   291                    Cuts: 18    15103         
Elapsed time = 16.98 sec. (11282.15 ticks, tree = 0.02 MB, solutions = 0)
    174    65    -9428.6823   294                  -5250.9981    17729         
    297    82    -9428.2993   287                  -5250.9981    17803         
    473   155   -12158.5733   284                  -5250.9981    18598         
    656    68    -8580.7688   199                  -5250.9981    17742         
    861   630    -9121.6869   284                  -5250.9981    25926         
   1081   422    -8967.0783   258                  -5250.9981    23741         
   1288   708    -9412.6612   214                  -5250.9981    26999         
   1496   577    -9187.1514   109                  -5250.9981    25181         
   1692   824    -8612.7048   248                  -5250.9981    38083         
   2482  1323    -6855.3037    73                  -5250.9981    52238         
Elapsed time = 36.16 sec. (14388.85 ticks, tree = 18.89 MB, solutions = 0)
   3176  2348   -11931.6752   310                  -5250.9981   107316         
   3825  2708    -7863.7002    53                  -5250.9981   141882         
   4427  3555    -7735.0503    42                  -5292.4386   211213         
   5135  3584   -14365.0776   249                  -5292.4386   212471         
   5748  4002   -58187.8674   456                  -5292.4386   253553         
   6025  4041    infeasible                        -5292.4386   263682         

Clique cuts applied:  52
Cover cuts applied:  19
Implied bound cuts applied:  68
Flow cuts applied:  326
Mixed integer rounding cuts applied:  6
Gomory fractional cuts applied:  16

Root node processing (before b&c):
  Real time             =   14.02 sec. (11223.35 ticks)
Parallel b&c, 32 threads:
  Real time             =   73.28 sec. (33826.06 ticks)
  Sync time (average)   =    2.05 sec.
  Wait time (average)   =    0.00 sec.
                          ------------
Total (root+branch&cut) =   87.30 sec. (45049.40 ticks)


MIP - Deterministic time limit exceeded, no integer solution.
Current MIP best bound = -5.2924386148e+03 (gap is infinite)
Solution time =   87.33 sec.  Iterations = 349693  Nodes = 6026 (4865)
Deterministic time = 45049.71 ticks  (515.87 ticks/sec)

CPLEX> CPLEX Error  1217: No solution exists.
No file written.
CPLEX> gap is infinite, so writing 0
NOTE: no warmstart specified for MIP iteration, default behavior is true
NOTE: resolving with all competitive generators using storage-only solution to warmstart
Solving...

Welcome to IBM(R) ILOG(R) CPLEX(R) Interactive Optimizer 12.9.0.0
  with Simplex, Mixed Integer & Barrier Optimizers
5725-A06 5725-A29 5724-Y48 5724-Y49 5724-Y54 5724-Y55 5655-Y21
Copyright IBM Corp. 1988, 2019.  All Rights Reserved.

Type 'help' for a list of available commands.
Type 'help' followed by a command name for more
information on commands.

CPLEX> Logfile 'cplex.log' closed.
Logfile 'C:\Users\llavin\Desktop\test826\logs\tmp5cn1d7a5.cplex.log' open.
CPLEX> New value for parallel optimization mode: -1
CPLEX> New value for mixed integer optimality gap tolerance: 0.02
CPLEX> New value for integrality tolerance: 1e-12
CPLEX> New value for deterministic time limit in ticks: 45000
CPLEX> Problem 'C:\Users\llavin\Desktop\test826\logs\tmpgbzvigu0.pyomo.lp' read.
Read time = 0.45 sec. (28.97 ticks)
CPLEX> MIP start file 'C:\Users\llavin\Desktop\test826\logs\tmpihxxcjho.cplex.mst' read.
CPLEX> Problem name         : C:\Users\llavin\Desktop\test826\logs\tmpgbzvigu0.pyomo.lp
Objective sense      : Maximize
Variables            :  109243  [Nneg: 1,  Box: 45502,  Free: 8928,
                                 Binary: 54812]
Objective nonzeros   :   19733
Linear constraints   :  246963  [Less: 82886,  Greater: 118460,  Equal: 45617]
  Nonzeros           :  621605
  RHS nonzeros       :  135881

Variables            : Min LB: -5000.000        Max UB: 1000000.       
Objective nonzeros   : Min   : 0.001000000      Max   : 208.3333       
Linear constraints   :
  Nonzeros           : Min   : 0.001000000      Max   : 1000000.       
  RHS nonzeros       : Min   : 0.001000000      Max   : 1000000.       
CPLEX> CPXPARAM_Parallel                                -1
CPXPARAM_DetTimeLimit                            45000
CPXPARAM_MIP_Tolerances_MIPGap                   0.02
CPXPARAM_MIP_Tolerances_Integrality              9.9999999999999998e-13
Warning:  No solution found from 1 MIP starts.
Retaining values of one MIP start for possible repair.
Tried aggregator 3 times.
MIP Presolve eliminated 176489 rows and 38649 columns.
MIP Presolve added 7020 rows and 0 columns.
MIP Presolve modified 51744 coefficients.
Aggregator did 25907 substitutions.
Reduced MIP has 51587 rows, 43791 columns, and 164393 nonzeros.
Reduced MIP has 17302 binaries, 0 generals, 0 SOSs, and 0 indicators.
Presolve time = 0.56 sec. (396.86 ticks)
Probing fixed 885 vars, tightened 16982 bounds.
Probing time = 0.41 sec. (19.96 ticks)
Tried aggregator 2 times.
MIP Presolve eliminated 2054 rows and 1774 columns.
MIP Presolve modified 6425 coefficients.
Aggregator did 96 substitutions.
Reduced MIP has 49437 rows, 41921 columns, and 144807 nonzeros.
Reduced MIP has 16417 binaries, 0 generals, 0 SOSs, and 0 indicators.
Presolve time = 0.23 sec. (257.76 ticks)
Probing fixed 0 vars, tightened 528 bounds.
Probing time = 0.55 sec. (17.93 ticks)
Clique table members: 83987.
MIP emphasis: balance optimality and feasibility.
MIP search method: dynamic search.
Parallel mode: opportunistic, using up to 32 threads.
Root relaxation solution time = 1.36 sec. (2768.80 ticks)

        Nodes                                         Cuts/
   Node  Left     Objective  IInf  Best Integer    Best Bound    ItCnt     Gap

      0     0    13495.5561  1383                  13495.5561    12714         
      0     0    13475.6394  1213                   Cuts: 989    13275         
      0     0    13469.2915  1176                   Cuts: 321    13435         
      0     0    13437.9162  1172                   Cuts: 163    13651         
      0     0    13376.2972  1092                   Cuts: 154    13756         
      0     0    13338.8627  1108                   Cuts: 123    13837         
      0     0    13216.7637  1160                   Cuts: 178    13992         
      0     0    13120.4517  1091                   Cuts: 163    14145         
      0     0    13102.6794  1063                   Cuts: 126    14231         
      0     0    13079.6775  1052                   Cuts: 105    14284         
      0     0    13079.3864  1058                    Cuts: 18    14310         
      0     0    13077.3122   167                    Cuts: 11    14385         
      0     0    13075.6836   177                    Cuts: 52    14438         
      0     0    13075.5052   167                    Cuts: 12    14463         
      0     0    13075.5052   156                    Cuts: 14    14473         
Repair heuristic found nothing.
      0     9     9900.8781   260                    Cuts: 18    17128         
Elapsed time = 18.78 sec. (12979.08 ticks, tree = 0.02 MB, solutions = 0)
    195    62     9785.2926   386                  13016.3755    20023         
    438    95     9367.7693   185                  13016.3755    20385         
    596   119     9769.3823   193                  13016.3755    21754         
    814   136     5893.5581   367                  12994.8062    21670         
    998   446     9367.7693   185                  12994.8062    32086         
   1169   691    infeasible                        12994.8062    44378         
   1343   975     9146.8844   174                  12994.8062    56151         
   1532   754     8806.5615   108                  12994.8062    45775         
   1720  1227     6496.0329   140                  12994.8062    73973         
   2637  1441     9910.6065   213                  12994.8062    89154         
Elapsed time = 39.80 sec. (16091.01 ticks, tree = 17.69 MB, solutions = 0)
   3418  2686     9908.9276   203                  12994.8062   179827         
   4136  2635     5400.2308   302                  12994.8062   176946         
   4821  3071     2848.3822   433                  12994.8062   220034         
   5438  3556      517.7850   338                  12994.8062   272210         
   5997  3613   -63133.3994   501                  12994.8062   285233         
   6230  3941    12869.4270   133                  12993.2739   307645         
   6327  4024    10770.9967    75                  12993.2739   309822         

GUB cover cuts applied:  1
Clique cuts applied:  1
Cover cuts applied:  21
Implied bound cuts applied:  23
Flow cuts applied:  209
Mixed integer rounding cuts applied:  3
Gomory fractional cuts applied:  1

Root node processing (before b&c):
  Real time             =   15.89 sec. (12922.28 ticks)
Parallel b&c, 32 threads:
  Real time             =   76.92 sec. (32118.42 ticks)
  Sync time (average)   =    1.65 sec.
  Wait time (average)   =    0.00 sec.
                          ------------
Total (root+branch&cut) =   92.81 sec. (45040.69 ticks)


MIP - Deterministic time limit exceeded, no integer solution.
Current MIP best bound =  1.2980372282e+04 (gap is infinite)
Solution time =   92.83 sec.  Iterations = 457059  Nodes = 6331 (5166)
Deterministic time = 45041.00 ticks  (485.21 ticks/sec)

CPLEX> CPLEX Error  1217: No solution exists.
No file written.
CPLEX> gap is infinite, so writing 0
Exporting results... 
